29399.0
1 1 1 0 1 1 0 1 1 0 1 1 1 1 0 1 0 1 0 1 1 1 1 1 1 1 1 1 1 0 
7 19 21 27 2 12 15 27 22 28 4 28 13 1 28 7 1 20 22 0 27 21 5 24 10 27 27 19 4 2 19 19 4 21 27 12 20 8 24 15 7 8 12 4 8 19 13 21 19 20 24 24 24 21 8 12 11 8 22 7 4 0 7 8 13 11 5 17 28 25 7 12 19 8 23 23 20 23 8 24 10 0 26 25 4 13 4 5 27 7 28 19 25 25 2 13 11 12 0 28 28 15 25 7 4 0 4 24 22 13 19 4 27 12 12 8 28 7 17 8 26 11 17 19 26 21 2 11 26 17 28 24 25 20 23 8 1 13 28 10 12 22 11 11 25 5 24 15 27 25 24 17 23 0 8 11 2 15 13 13 13 27 10 24 5 27 5 4 1 21 1 20 19 10 26 2 0 10 4 10 5 21 2 28 12 8 28 23 0 21 2 21 19 4 7 12 7 21 10 19 